Route #1: 96 40 28 8 66
Route #2: 68 24 54 79 84 82 57 71
Route #3: 12 37 30 86 83 11 43
Route #4: 39 70 49 80 91 60 31
Route #5: 73 61 15 16 58 45 98
Route #6: 34 77 95 13 36 42 14
Route #7: 41 81 75 62 26 21 17
Route #8: 3 20 10 69 1 48
Route #9: 90 46 18 4 74 92 76
Route #10: 2 22 56 25 64 78 5
Route #11: 7 89 72 52 63 93
Route #12: 85 50 32 97 53 99 33
Route #13: 9 23 35 59 47 55
Route #14: 19 100 29 67 27 87
Route #15: 44 38 51 65 6 88 94
Cost 28804
